minizinc/sudoku_problems2/sudoku_p20.dzn
%
% sudoku_p20.dzn
% See http://www.hakank.org/minizinc/sudoku_gcc.mzn
% 
% This problem is problem 20 from
% Gecode's sudoku.cpp
% http://www.gecode.org/gecode-doc-latest/sudoku_8cpp-source.html
% 
x = array2d(1..n, 1..n, [   
% 20
  5,  _, 25, 12,  _,  _,  7,  _,  _, 19,  _,  _, 18,  _,  _,  _,  3,  _,  _, 17,  _, 22,  _,  2, 21,
 17,  _,  _,  _,  _,  _,  _,  _, 15,  _,  _, 13, 10,  _,  _, 23,  _, 16,  _,  _,  _,  9,  _,  _, 25,
  _,  _,  _,  3, 21, 12, 25,  2,  _,  5,  4,  _,  7,  1,  _, 11,  _,  _,  _,  _, 19,  _,  8,  _,  _,
  7,  6, 22,  8,  _,  _,  _,  3, 10,  _,  _,  _, 17,  _,  _, 12,  _, 13,  _, 15, 24,  _,  _,  _,  _,
  _,  _,  _, 13, 20,  _,  _, 16, 18,  _,  _, 11,  _, 21,  _,  6,  _,  8,  _,  1,  4,  _,  _,  _,  _,
 10,  _,  _,  _,  _,  _,  _, 22,  _,  _,  _,  _, 13,  _,  6,  _, 23,  _, 25,  _,  _,  _,  _, 24,  2,
  _,  _,  _, 14,  5, 11, 21, 15,  _,  _,  9,  2,  _,  _,  3, 10, 19, 12,  _,  _,  6, 18,  _,  _,  _,
  _, 25, 23, 19,  _,  6,  _,  _, 14,  7, 10,  _,  8,  _,  _, 18, 22,  _, 24, 21,  1,  _, 16,  _, 12,
  _, 21,  3,  _,  _,  _, 24,  _, 23,  _,  5,  _, 20, 18,  _,  4,  6,  _,  _,  _,  _,  _,  9, 14,  _,
  _, 18,  _, 16,  _, 10,  _,  _,  2,  8,  _, 22, 11, 25,  _,  _,  _, 14,  _,  _, 17, 19,  3,  _,  7,
 19,  _,  7,  4,  _, 21,  _,  _, 13,  1, 24,  9,  6,  _, 10,  3,  _, 22,  _,  _,  _, 16, 18,  _,  _,
 14,  _,  _,  _,  1,  _,  _,  _, 20,  _,  _,  _,  _, 19,  _,  _,  _, 25,  6,  _,  7,  _, 12,  _,  9,
  8, 22,  _,  _, 10,  9, 19, 24,  _, 15,  _, 25,  _,  _,  1,  _,  _,  _,  4,  _, 14,  3, 23,  6,  _,
  _,  _,  _, 18,  _,  3,  _,  7,  _,  _,  _,  _,  _,  _,  _, 14, 21,  _, 12, 13,  _,  _, 17,  _,  _,
  _,  _,  _,  _, 13, 14,  2,  _,  _, 25,  _,  _,  _, 23,  _,  _,  _,  _,  _,  _,  _,  _,  _, 20,  _,
  _, 24,  _,  7,  _, 15, 20, 18,  1,  _,  _, 16, 19,  _, 23,  _,  _,  _,  _,  _,  9,  _, 25,  8,  _,
  _,  8,  9,  _,  _, 17,  _,  _, 11, 23, 22,  7,  3, 13,  _, 20, 15, 19,  _,  _, 18,  _,  6,  _, 10,
 25, 13, 11, 23,  _,  _,  _,  9, 22,  _,  _, 12,  _,  _,  _,  _,  _, 24,  _,  6,  _,  _,  7,  _,  _,
  _, 15,  _, 20,  _,  _,  _,  4,  _,  _, 21, 10,  9, 11,  _,  _, 12,  _, 14,  7,  5,  _,  _, 16, 23,
 16,  _, 10,  _,  _,  _,  _,  _,  7,  _,  8,  _,  _,  _,  _,  _, 17,  _,  _,  _,  _, 24,  _,  3,  _,
 11,  _,  _,  _, 12,  _,  _,  _,  4,  _,  _,  _,  _,  _,  _,  8, 20,  _,  3,  _, 25,  _,  _,  _,  _,
 13, 17, 14,  5,  _,  _, 15, 10,  _,  _,  _, 19,  _,  3,  _,  _, 11,  _,  2,  _, 20, 12,  _,  9,  8,
  _,  _,  _, 15,  _,  _,  _,  5,  _,  _,  _,  _, 23,  _,  _, 19,  9,  _,  _,  _,  _,  _,  _, 18,  _,
  _, 19,  _,  _,  _, 25,  _,  _, 24,  _, 11, 20,  _,  _,  _,  _, 18,  _, 22,  _,  3,  _,  _,  5,  _,
  9,  _,  _,  _,  8,  _, 11,  _,  6,  _, 13,  _, 22,  _, 18,  _,  _, 17,  _,  5, 16,  _, 19,  4,  _
]);

n = 25;


